
Gurobi 9.5.2 (mac64[arm]) logging started Wed Apr 19 12:21:27 2023

Set parameter LogFile to value "Java/output/pure_mip/scenario_seed_1_nJob_20_machineCount_1/mip_increment_2/log.txt"
Gurobi Optimizer version 9.5.2 build v9.5.2rc0 (mac64[arm])
Thread count: 8 physical cores, 8 logical processors, using up to 8 threads
Optimize a model with 508 rows, 4080 columns and 27024 nonzeros
Model fingerprint: 0x8a182e8a
Variable types: 0 continuous, 4080 integer (4080 binary)
Coefficient statistics:
  Matrix range     [1e+00, 2e+02]
  Objective range  [4e+00, 2e+06]
  Bounds range     [1e+00, 1e+00]
  RHS range        [1e+00, 1e+00]
Presolve removed 33 rows and 669 columns
Presolve time: 0.03s
Presolved: 475 rows, 3411 columns, 22114 nonzeros
Variable types: 0 continuous, 3411 integer (3405 binary)

Root relaxation: objective 5.883907e+03, 2280 iterations, 0.06 seconds (0.09 work units)

    Nodes    |    Current Node    |     Objective Bounds      |     Work
 Expl Unexpl |  Obj  Depth IntInf | Incumbent    BestBd   Gap | It/Node Time

     0     0 5883.90699    0  147          - 5883.90699      -     -    0s
     0     0 6356.12087    0  197          - 6356.12087      -     -    0s
     0     0 6531.40919    0  189          - 6531.40919      -     -    0s
     0     0 6532.05494    0  185          - 6532.05494      -     -    0s
     0     0 6879.92858    0  236          - 6879.92858      -     -    0s
     0     0 6925.84247    0  221          - 6925.84247      -     -    0s
     0     0 6925.84247    0  217          - 6925.84247      -     -    0s
     0     0 8016.91889    0  239          - 8016.91889      -     -    0s
     0     0 8743.48601    0  230          - 8743.48601      -     -    0s
     0     0 9578.16433    0  242          - 9578.16433      -     -    0s
     0     0 9762.62630    0  253          - 9762.62630      -     -    0s
     0     0 9801.16140    0  258          - 9801.16140      -     -    0s
     0     0 9801.25772    0  256          - 9801.25772      -     -    0s
     0     0 12056.2966    0  277          - 12056.2966      -     -    1s
H    0     0                    78760.000000 13200.5883  83.2%     -    1s
     0     0 13200.5883    0  276 78760.0000 13200.5883  83.2%     -    1s
     0     0 13482.2679    0  271 78760.0000 13482.2679  82.9%     -    1s
     0     0 13512.6990    0  283 78760.0000 13512.6990  82.8%     -    1s
     0     0 13521.9189    0  290 78760.0000 13521.9189  82.8%     -    1s
     0     0 13528.1419    0  280 78760.0000 13528.1419  82.8%     -    1s
     0     0 13528.2075    0  280 78760.0000 13528.2075  82.8%     -    1s
     0     0 13854.7276    0  294 78760.0000 13854.7276  82.4%     -    1s
H    0     0                    56408.000000 13854.7276  75.4%     -    1s
     0     0 13972.6247    0  302 56408.0000 13972.6247  75.2%     -    1s
     0     0 14031.9944    0  305 56408.0000 14031.9944  75.1%     -    1s
     0     0 14038.8804    0  304 56408.0000 14038.8804  75.1%     -    1s
     0     0 14039.0092    0  306 56408.0000 14039.0092  75.1%     -    1s
     0     0 14486.9347    0  306 56408.0000 14486.9347  74.3%     -    1s
H    0     0                    39498.000000 14486.9347  63.3%     -    1s
     0     0 14533.6927    0  308 39498.0000 14533.6927  63.2%     -    1s
     0     0 14539.1953    0  292 39498.0000 14539.1953  63.2%     -    1s
     0     0 14646.3816    0  312 39498.0000 14646.3816  62.9%     -    1s
H    0     0                    34834.000000 14646.3816  58.0%     -    1s
     0     0 14660.3256    0  325 34834.0000 14660.3256  57.9%     -    1s
     0     0 14663.9123    0  333 34834.0000 14663.9123  57.9%     -    1s
     0     0 15119.9284    0  319 34834.0000 15119.9284  56.6%     -    1s
H    0     0                    31342.000000 15119.9284  51.8%     -    1s
     0     0 15188.0965    0  330 31342.0000 15188.0965  51.5%     -    1s
     0     0 15207.8717    0  326 31342.0000 15207.8717  51.5%     -    1s
     0     0 15216.8298    0  335 31342.0000 15216.8298  51.4%     -    1s
     0     0 15219.2802    0  350 31342.0000 15219.2802  51.4%     -    1s
     0     0 15481.6883    0  331 31342.0000 15481.6883  50.6%     -    2s
H    0     0                    29056.000000 15481.6883  46.7%     -    2s
     0     0 15556.1326    0  332 29056.0000 15556.1326  46.5%     -    2s
     0     0 15578.3311    0  347 29056.0000 15578.3311  46.4%     -    2s
     0     0 15584.5630    0  352 29056.0000 15584.5630  46.4%     -    2s
     0     0 16047.5060    0  343 29056.0000 16047.5060  44.8%     -    2s
     0     0 16090.3668    0  343 29056.0000 16090.3668  44.6%     -    2s
     0     0 16107.7613    0  350 29056.0000 16107.7613  44.6%     -    2s
     0     0 16109.6097    0  361 29056.0000 16109.6097  44.6%     -    2s
     0     0 16209.6124    0  342 29056.0000 16209.6124  44.2%     -    2s
H    0     0                    27852.000000 16209.6124  41.8%     -    2s
     0     0 16221.2739    0  352 27852.0000 16221.2739  41.8%     -    2s
     0     0 16328.9548    0  354 27852.0000 16328.9548  41.4%     -    2s
     0     0 16328.9548    0  347 27852.0000 16328.9548  41.4%     -    2s
     0     0 16348.9257    0  162 27852.0000 16348.9257  41.3%     -    2s
     0     0 16348.9257    0  231 27852.0000 16348.9257  41.3%     -    2s
     0     0 16348.9257    0  270 27852.0000 16348.9257  41.3%     -    3s
     0     0 16348.9257    0  294 27852.0000 16348.9257  41.3%     -    3s
     0     0 16348.9257    0  301 27852.0000 16348.9257  41.3%     -    3s
     0     0 16426.9789    0  311 27852.0000 16426.9789  41.0%     -    3s
     0     0 16443.1852    0  337 27852.0000 16443.1852  41.0%     -    3s
     0     0 16445.4509    0  344 27852.0000 16445.4509  41.0%     -    3s
     0     0 16497.4518    0  357 27852.0000 16497.4518  40.8%     -    3s
     0     0 16503.6992    0  341 27852.0000 16503.6992  40.7%     -    3s
     0     0 16564.9677    0  359 27852.0000 16564.9677  40.5%     -    3s
     0     0 16564.9677    0  347 27852.0000 16564.9677  40.5%     -    3s
     0     2 16581.6952    0  347 27852.0000 16581.6952  40.5%     -    3s
H   33    39                    25960.000000 16675.1398  35.8%   379    3s
H   35    39                    20798.000000 16675.1398  19.8%   374    3s
H   66    68                    20262.000000 16742.3170  17.4%   353    3s
H   66    68                    20260.000000 16742.3170  17.4%   353    3s
H   70    68                    19854.000000 16742.3170  15.7%   350    3s
H  158   106                    19742.000000 16884.5868  14.5%   284    4s
H  170   105                    17768.000000 16884.5868  4.97%   278    4s
H  290     8                    17760.000000 17303.8186  2.57%   181    4s

Cutting planes:
  Gomory: 2
  Cover: 18
  Clique: 82
  MIR: 72
  StrongCG: 47
  GUB cover: 104
  Zero half: 15
  Mod-K: 1
  RLT: 1

Explored 320 nodes (93481 simplex iterations) in 4.17 seconds (7.16 work units)
Thread count was 8 (of 8 available processors)

Solution count 10: 17760 17768 19742 ... 29056

Optimal solution found (tolerance 1.00e-04)
Best objective 1.776000000000e+04, best bound 1.776000000000e+04, gap 0.0000%
